% File represents an instance of a Composite Structure problem to be solved by a CP framework
% Created on 2025-03-26 10:41:26.846
T = 50;
n = 16;
m = 24;
edges = [(1, 2),
(5, 6),
(9, 10),
(13, 14),
(2, 3),
(6, 7),
(10, 11),
(14, 15),
(3, 4),
(7, 8),
(11, 12),
(15, 16),
(1, 5),
(5, 9),
(9, 13),
(2, 6),
(6, 10),
(10, 14),
(3, 7),
(7, 11),
(11, 15),
(4, 8),
(8, 12),
(12, 16)];
counts = [|8, 14, 8, 20,
|8, 14, 8, 14,
|8, 12, 8, 10,
|6, 12, 6, 8,
|8, 12, 8, 16,
|6, 12, 6, 14,
|6, 10, 6, 10,
|6, 10, 6, 4,
|6, 12, 6, 16,
|6, 12, 6, 10,
|6, 8, 6, 8,
|6, 8, 6, 2,
|6, 10, 6, 12,
|6, 8, 6, 8,
|4, 6, 4, 8,
|4, 6, 4, 2|];
